(set-info :source |printed by MathSAT|)
(declare-fun call_firefly.ite21 () Int)
(declare-fun call_firefly.ite5 () Int)
(declare-fun call_firefly.ite23 () Int)
(declare-fun param_e7 () Bool)
(declare-fun call_firefly.ite35 () Int)
(declare-fun shared () Int)
(declare-fun call_firefly.mem_invalid () Int)
(declare-fun call_firefly.ite9 () Int)
(declare-fun call_firefly.ite10 () Int)
(declare-fun call_Sofar.Sofar () Bool)
(declare-fun call_firefly.ite27 () Int)
(declare-fun env () Bool)
(declare-fun call_firefly.ite34 () Int)
(declare-fun call_firefly.ite25 () Int)
(declare-fun call_First.First () Int)
(declare-fun call_firefly.ite19 () Int)
(declare-fun call_excludes8.excludes () Bool)
(declare-fun call_firefly.ite36 () Int)
(declare-fun call_firefly.ite32 () Int)
(declare-fun call_firefly.ite18 () Int)
(declare-fun call_firefly.ite17 () Int)
(declare-fun call_firefly.exclusive () Int)
(declare-fun call_firefly.ite20 () Int)
(declare-fun call_firefly.flby4 () Int)
(declare-fun _OK_ () Bool)
(declare-fun param_e1 () Bool)
(declare-fun call_firefly.ite8 () Int)
(declare-fun call_firefly.ite31 () Int)
(declare-fun call_firefly.ite7 () Int)
(declare-fun dirty () Int)
(declare-fun call_firefly.flby2 () Int)
(declare-fun call_firefly.garde3 () Bool)
(declare-fun exclusive () Int)
(declare-fun param_e3 () Bool)
(declare-fun invalid () Int)
(declare-fun param_e5 () Bool)
(declare-fun call_firefly.ite22 () Int)
(declare-fun call_firefly.ite () Int)
(declare-fun call_firefly.flby3 () Int)
(declare-fun call_firefly.invalid () Int)
(declare-fun call_firefly.garde6 () Bool)
(declare-fun param_e8 () Bool)
(declare-fun call_firefly.ite24 () Int)
(declare-fun param_e4 () Bool)
(declare-fun call_firefly.dirty () Int)
(declare-fun call_firefly.flby () Int)
(declare-fun call_firefly.ite16 () Int)
(declare-fun call_firefly.ite14 () Int)
(declare-fun param_e6 () Bool)
(declare-fun call_Sofar.flby () Bool)
(declare-fun call_firefly.ite26 () Int)
(declare-fun call_firefly.shared () Int)
(declare-fun call_firefly.garde8 () Bool)
(declare-fun call_firefly.ite39 () Int)
(declare-fun call_firefly.ite4 () Int)
(declare-fun call_firefly.ite13 () Int)
(declare-fun param_e2 () Bool)
(declare-fun call_firefly.ite33 () Int)
(declare-fun call_firefly.ite2 () Int)
(declare-fun call_firefly.ite3 () Int)
(declare-fun call_firefly.ite28 () Int)
(declare-fun call_firefly.ite38 () Int)
(declare-fun param_i_invalid () Int)
(declare-fun call_firefly.ite40 () Int)
(declare-fun call_firefly.ite6 () Int)
(declare-fun call_firefly.flby5 () Int)
(declare-fun call_firefly.ite30 () Int)
(declare-fun call_firefly.ite12 () Int)
(declare-fun call_firefly.ite11 () Int)
(declare-fun call_First.flby () Int)
(declare-fun call_firefly.ite37 () Int)
(declare-fun call_firefly.ite29 () Int)
(declare-fun call_firefly.ite15 () Int)
(define-fun .def_1146 () Bool (= call_First.flby call_First.First))
(define-fun .def_1144 () Bool (= call_Sofar.flby call_Sofar.Sofar))
(define-fun .def_942 () Bool (not param_e2))
(define-fun .def_923 () Bool (not param_e1))
(define-fun .def_1092 () Bool (and .def_923 .def_942))
(define-fun .def_970 () Bool (not param_e3))
(define-fun .def_1093 () Bool (and .def_970 .def_1092))
(define-fun .def_995 () Bool (not param_e4))
(define-fun .def_1094 () Bool (and .def_995 .def_1093))
(define-fun .def_1012 () Bool (not param_e5))
(define-fun .def_1095 () Bool (and .def_1012 .def_1094))
(define-fun .def_1030 () Bool (not param_e6))
(define-fun .def_1096 () Bool (and .def_1030 .def_1095))
(define-fun .def_859 () Bool (not param_e7))
(define-fun .def_1097 () Bool (and .def_859 .def_1096))
(define-fun .def_843 () Bool (not param_e8))
(define-fun .def_1133 () Bool (and .def_843 .def_1097))
(define-fun .def_1126 () Bool (and param_e1 .def_942))
(define-fun .def_1127 () Bool (and .def_970 .def_1126))
(define-fun .def_1128 () Bool (and .def_995 .def_1127))
(define-fun .def_1129 () Bool (and .def_1012 .def_1128))
(define-fun .def_1130 () Bool (and .def_1030 .def_1129))
(define-fun .def_1131 () Bool (and .def_859 .def_1130))
(define-fun .def_1132 () Bool (and .def_843 .def_1131))
(define-fun .def_1134 () Bool (or .def_1132 .def_1133))
(define-fun .def_1119 () Bool (and .def_923 param_e2))
(define-fun .def_1120 () Bool (and .def_970 .def_1119))
(define-fun .def_1121 () Bool (and .def_995 .def_1120))
(define-fun .def_1122 () Bool (and .def_1012 .def_1121))
(define-fun .def_1123 () Bool (and .def_1030 .def_1122))
(define-fun .def_1124 () Bool (and .def_859 .def_1123))
(define-fun .def_1125 () Bool (and .def_843 .def_1124))
(define-fun .def_1135 () Bool (or .def_1125 .def_1134))
(define-fun .def_1113 () Bool (and param_e3 .def_1092))
(define-fun .def_1114 () Bool (and .def_995 .def_1113))
(define-fun .def_1115 () Bool (and .def_1012 .def_1114))
(define-fun .def_1116 () Bool (and .def_1030 .def_1115))
(define-fun .def_1117 () Bool (and .def_859 .def_1116))
(define-fun .def_1118 () Bool (and .def_843 .def_1117))
(define-fun .def_1136 () Bool (or .def_1118 .def_1135))
(define-fun .def_1108 () Bool (and param_e4 .def_1093))
(define-fun .def_1109 () Bool (and .def_1012 .def_1108))
(define-fun .def_1110 () Bool (and .def_1030 .def_1109))
(define-fun .def_1111 () Bool (and .def_859 .def_1110))
(define-fun .def_1112 () Bool (and .def_843 .def_1111))
(define-fun .def_1137 () Bool (or .def_1112 .def_1136))
(define-fun .def_1104 () Bool (and param_e5 .def_1094))
(define-fun .def_1105 () Bool (and .def_1030 .def_1104))
(define-fun .def_1106 () Bool (and .def_859 .def_1105))
(define-fun .def_1107 () Bool (and .def_843 .def_1106))
(define-fun .def_1138 () Bool (or .def_1107 .def_1137))
(define-fun .def_1101 () Bool (and param_e6 .def_1095))
(define-fun .def_1102 () Bool (and .def_859 .def_1101))
(define-fun .def_1103 () Bool (and .def_843 .def_1102))
(define-fun .def_1139 () Bool (or .def_1103 .def_1138))
(define-fun .def_1099 () Bool (and param_e7 .def_1096))
(define-fun .def_1100 () Bool (and .def_843 .def_1099))
(define-fun .def_1140 () Bool (or .def_1100 .def_1139))
(define-fun .def_1098 () Bool (and param_e8 .def_1097))
(define-fun .def_1141 () Bool (or .def_1098 .def_1140))
(define-fun .def_1142 () Bool (= call_excludes8.excludes .def_1141))
(define-fun .def_1090 () Bool (= call_firefly.flby call_firefly.mem_invalid))
(define-fun .def_1088 () Bool (= call_firefly.flby5 call_firefly.shared))
(define-fun .def_1086 () Bool (= call_firefly.flby4 call_firefly.exclusive))
(define-fun .def_1084 () Bool (= call_firefly.flby3 call_firefly.dirty))
(define-fun .def_1082 () Bool (= call_firefly.flby2 call_firefly.invalid))
(define-fun .def_1080 () Bool (= dirty call_firefly.dirty))
(define-fun .def_1077 () Bool (= invalid call_firefly.invalid))
(define-fun .def_1067 () Int (* (- 1) call_First.First))
(define-fun .def_1068 () Int (+ dirty .def_1067))
(define-fun .def_1069 () Int (+ invalid .def_1068))
(define-fun .def_1070 () Int (+ shared .def_1069))
(define-fun .def_1071 () Int (+ exclusive .def_1070))
(define-fun .def_1072 () Bool (= .def_1071 0))
(define-fun .def_1055 () Bool (not env))
(define-fun .def_1073 () Bool (or .def_1055 .def_1072))
(define-fun .def_1074 () Bool (= _OK_ .def_1073))
(define-fun .def_1050 () Bool (= call_firefly.ite36 call_firefly.ite37))
(define-fun .def_1051 () Bool (or param_e7 .def_1050))
(define-fun .def_1047 () Bool (= call_firefly.ite37 call_firefly.ite34))
(define-fun .def_1048 () Bool (or .def_859 .def_1047))
(define-fun .def_1043 () Bool (= call_firefly.ite8 call_firefly.ite5))
(define-fun .def_1044 () Bool (or .def_859 .def_1043))
(define-fun .def_1040 () Bool (= call_firefly.ite7 call_firefly.ite8))
(define-fun .def_1041 () Bool (or param_e7 .def_1040))
(define-fun .def_1045 () Bool (and .def_1041 .def_1044))
(define-fun .def_1049 () Bool (and .def_1045 .def_1048))
(define-fun .def_1052 () Bool (and .def_1049 .def_1051))
(define-fun .def_1036 () Bool (= call_firefly.ite17 call_firefly.ite18))
(define-fun .def_1037 () Bool (or param_e6 .def_1036))
(define-fun .def_1033 () Bool (= call_firefly.ite15 call_firefly.ite18))
(define-fun .def_1034 () Bool (or .def_1030 .def_1033))
(define-fun .def_1029 () Bool (= call_firefly.ite9 call_firefly.ite4))
(define-fun .def_1031 () Bool (or .def_1029 .def_1030))
(define-fun .def_1025 () Bool (= call_firefly.ite9 call_firefly.ite8))
(define-fun .def_1027 () Bool (or .def_1025 param_e6))
(define-fun .def_1032 () Bool (and .def_1027 .def_1031))
(define-fun .def_1035 () Bool (and .def_1032 .def_1034))
(define-fun .def_1038 () Bool (and .def_1035 .def_1037))
(define-fun .def_1020 () Bool (= call_firefly.ite38 call_firefly.ite37))
(define-fun .def_1021 () Bool (or param_e5 .def_1020))
(define-fun .def_1016 () Bool (= call_firefly.ite38 call_firefly.ite33))
(define-fun .def_1017 () Bool (or .def_1012 .def_1016))
(define-fun .def_1011 () Bool (= call_firefly.ite27 call_firefly.ite24))
(define-fun .def_1013 () Bool (or .def_1011 .def_1012))
(define-fun .def_1007 () Bool (= call_firefly.ite26 call_firefly.ite27))
(define-fun .def_1009 () Bool (or .def_1007 param_e5))
(define-fun .def_1014 () Bool (and .def_1009 .def_1013))
(define-fun .def_1018 () Bool (and .def_1014 .def_1017))
(define-fun .def_1022 () Bool (and .def_1018 .def_1021))
(define-fun .def_1003 () Bool (= call_firefly.ite28 call_firefly.ite27))
(define-fun .def_1004 () Bool (or param_e4 .def_1003))
(define-fun .def_999 () Bool (= call_firefly.ite28 call_firefly.ite23))
(define-fun .def_1000 () Bool (or .def_995 .def_999))
(define-fun .def_994 () Bool (= call_firefly.ite19 call_firefly.ite14))
(define-fun .def_996 () Bool (or .def_994 .def_995))
(define-fun .def_990 () Bool (= call_firefly.ite19 call_firefly.ite18))
(define-fun .def_992 () Bool (or .def_990 param_e4))
(define-fun .def_997 () Bool (and .def_992 .def_996))
(define-fun .def_1001 () Bool (and .def_997 .def_1000))
(define-fun .def_1005 () Bool (and .def_1001 .def_1004))
(define-fun .def_985 () Bool (= call_firefly.ite39 call_firefly.ite38))
(define-fun .def_986 () Bool (or param_e3 .def_985))
(define-fun .def_981 () Bool (= call_firefly.ite39 call_firefly.ite32))
(define-fun .def_982 () Bool (or .def_970 .def_981))
(define-fun .def_977 () Bool (= call_firefly.ite29 call_firefly.ite28))
(define-fun .def_978 () Bool (or param_e3 .def_977))
(define-fun .def_973 () Bool (= call_firefly.ite22 call_firefly.ite29))
(define-fun .def_974 () Bool (or .def_970 .def_973))
(define-fun .def_969 () Bool (= call_firefly.ite10 call_firefly.ite3))
(define-fun .def_971 () Bool (or .def_969 .def_970))
(define-fun .def_965 () Bool (= call_firefly.ite10 call_firefly.ite9))
(define-fun .def_967 () Bool (or .def_965 param_e3))
(define-fun .def_972 () Bool (and .def_967 .def_971))
(define-fun .def_975 () Bool (and .def_972 .def_974))
(define-fun .def_979 () Bool (and .def_975 .def_978))
(define-fun .def_983 () Bool (and .def_979 .def_982))
(define-fun .def_987 () Bool (and .def_983 .def_986))
(define-fun .def_960 () Bool (= call_firefly.ite40 call_firefly.ite39))
(define-fun .def_961 () Bool (or param_e2 .def_960))
(define-fun .def_956 () Bool (= call_firefly.ite31 call_firefly.ite40))
(define-fun .def_957 () Bool (or .def_942 .def_956))
(define-fun .def_951 () Bool (= call_firefly.ite20 call_firefly.ite19))
(define-fun .def_952 () Bool (or param_e2 .def_951))
(define-fun .def_947 () Bool (= call_firefly.ite13 call_firefly.ite20))
(define-fun .def_948 () Bool (or .def_942 .def_947))
(define-fun .def_941 () Bool (= call_firefly.ite11 call_firefly.ite2))
(define-fun .def_943 () Bool (or .def_941 .def_942))
(define-fun .def_937 () Bool (= call_firefly.ite11 call_firefly.ite10))
(define-fun .def_939 () Bool (or .def_937 param_e2))
(define-fun .def_944 () Bool (and .def_939 .def_943))
(define-fun .def_949 () Bool (and .def_944 .def_948))
(define-fun .def_953 () Bool (and .def_949 .def_952))
(define-fun .def_958 () Bool (and .def_953 .def_957))
(define-fun .def_962 () Bool (and .def_958 .def_961))
(define-fun .def_932 () Bool (= call_firefly.ite30 call_firefly.ite29))
(define-fun .def_933 () Bool (or param_e1 .def_932))
(define-fun .def_928 () Bool (= call_firefly.ite21 call_firefly.ite30))
(define-fun .def_929 () Bool (or .def_923 .def_928))
(define-fun .def_922 () Bool (= call_firefly.ite12 call_firefly.ite))
(define-fun .def_924 () Bool (or .def_922 .def_923))
(define-fun .def_918 () Bool (= call_firefly.ite12 call_firefly.ite11))
(define-fun .def_920 () Bool (or .def_918 param_e1))
(define-fun .def_925 () Bool (and .def_920 .def_924))
(define-fun .def_930 () Bool (and .def_925 .def_929))
(define-fun .def_934 () Bool (and .def_930 .def_933))
(define-fun .def_914 () Bool (= env call_Sofar.Sofar))
(define-fun .def_910 () Bool (= shared call_firefly.shared))
(define-fun .def_907 () Bool (= exclusive call_firefly.exclusive))
(define-fun .def_911 () Bool (and .def_907 .def_910))
(define-fun .def_915 () Bool (and .def_911 .def_914))
(define-fun .def_935 () Bool (and .def_915 .def_934))
(define-fun .def_963 () Bool (and .def_935 .def_962))
(define-fun .def_988 () Bool (and .def_963 .def_987))
(define-fun .def_1006 () Bool (and .def_988 .def_1005))
(define-fun .def_1023 () Bool (and .def_1006 .def_1022))
(define-fun .def_1039 () Bool (and .def_1023 .def_1038))
(define-fun .def_1053 () Bool (and .def_1039 .def_1052))
(define-fun .def_1075 () Bool (and .def_1053 .def_1074))
(define-fun .def_1078 () Bool (and .def_1075 .def_1077))
(define-fun .def_1081 () Bool (and .def_1078 .def_1080))
(define-fun .def_1083 () Bool (and .def_1081 .def_1082))
(define-fun .def_1085 () Bool (and .def_1083 .def_1084))
(define-fun .def_1087 () Bool (and .def_1085 .def_1086))
(define-fun .def_1089 () Bool (and .def_1087 .def_1088))
(define-fun .def_1091 () Bool (and .def_1089 .def_1090))
(define-fun .def_1143 () Bool (and .def_1091 .def_1142))
(define-fun .def_1145 () Bool (and .def_1143 .def_1144))
(define-fun .def_1147 () Bool (and .def_1145 .def_1146))
(define-fun .def_903 () Bool (= param_i_invalid call_First.flby))
(define-fun .def_896 () Bool (<= 0 param_i_invalid))
(define-fun .def_898 () Bool (and .def_896 call_excludes8.excludes))
(define-fun .def_900 () Bool (= .def_898 call_Sofar.flby))
(define-fun .def_894 () Bool (= call_firefly.flby5 0))
(define-fun .def_891 () Bool (= call_firefly.flby4 0))
(define-fun .def_888 () Bool (= call_firefly.flby3 0))
(define-fun .def_885 () Bool (= call_firefly.flby2 call_firefly.mem_invalid))
(define-fun .def_881 () Bool (= param_i_invalid call_firefly.flby))
(define-fun .def_876 () Bool (= call_firefly.ite25 0))
(define-fun .def_875 () Bool (not call_firefly.garde8))
(define-fun .def_877 () Bool (or .def_875 .def_876))
(define-fun .def_871 () Bool (= call_firefly.ite15 1))
(define-fun .def_869 () Bool (not call_firefly.garde6))
(define-fun .def_872 () Bool (or .def_869 .def_871))
(define-fun .def_865 () Bool (= call_firefly.ite22 0))
(define-fun .def_863 () Bool (not call_firefly.garde3))
(define-fun .def_866 () Bool (or .def_863 .def_865))
(define-fun .def_857 () Bool (= call_firefly.ite16 call_firefly.ite17))
(define-fun .def_860 () Bool (or .def_857 .def_859))
(define-fun .def_852 () Bool (= call_firefly.ite35 call_firefly.ite36))
(define-fun .def_853 () Bool (or .def_843 .def_852))
(define-fun .def_847 () Bool (= call_firefly.ite6 call_firefly.ite7))
(define-fun .def_848 () Bool (or .def_843 .def_847))
(define-fun .def_841 () Bool (= call_firefly.ite25 call_firefly.ite26))
(define-fun .def_844 () Bool (or .def_841 .def_843))
(define-fun .def_849 () Bool (and .def_844 .def_848))
(define-fun .def_854 () Bool (and .def_849 .def_853))
(define-fun .def_861 () Bool (and .def_854 .def_860))
(define-fun .def_867 () Bool (and .def_861 .def_866))
(define-fun .def_873 () Bool (and .def_867 .def_872))
(define-fun .def_878 () Bool (and .def_873 .def_877))
(define-fun .def_882 () Bool (and .def_878 .def_881))
(define-fun .def_886 () Bool (and .def_882 .def_885))
(define-fun .def_889 () Bool (and .def_886 .def_888))
(define-fun .def_892 () Bool (and .def_889 .def_891))
(define-fun .def_895 () Bool (and .def_892 .def_894))
(define-fun .def_901 () Bool (and .def_895 .def_900))
(define-fun .def_904 () Bool (and .def_901 .def_903))
(define-fun .def_1148 () Bool (and .def_904 .def_1147))
(assert .def_1148)
